experiments/theorem_prover/keep_for_binOct/Instance1/maxsat_encoding/ms_cegqs_0.wcnf
c This is a CNF SAT formula in the DIMACS CNF format,
c produced with the bc2cnf translator by Tommi Junttila;
c see http://users.ics.aalto.fi/tjunttil/circuits/index.html
c phi_Gamma <-> 1
c phi_T_feature_det <-> 1
c phi_T_transitions <-> 1
c phi_T_transitions_consistency <-> 1
c phi_T <-> 1
c phi_sim_leaves <-> 1
c phi_sim_transition <-> 1
c phi_sim <-> 1
c FORMULA <-> 1
c pi_2_9 <-> 2
c pi_1_9 <-> 9
c pi_0_9 <-> 20
c pi_2_0 <-> 35
c pi_2_4 <-> 35
c pi_2_8 <-> 35
c pi_1_0 <-> 38
c pi_1_4 <-> 38
c pi_1_8 <-> 38
c pi_0_0 <-> 47
c pi_0_4 <-> 47
c pi_0_8 <-> 47
c pi_2_7 <-> 60
c pi_1_7 <-> 64
c pi_0_7 <-> 74
c pi_2_6 <-> 88
c pi_1_6 <-> 95
c pi_0_6 <-> 106
c pi_2_5 <-> 121
c pi_1_5 <-> 122
c pi_0_5 <-> 128
c pi_2_3 <-> 136
c pi_1_3 <-> 138
c pi_0_3 <-> 144
c pi_2_2 <-> 152
c pi_1_2 <-> 156
c pi_0_2 <-> 166
c pi_2_1 <-> 180
c pi_1_1 <-> 181
c pi_0_1 <-> 190
c alp_H1_0_0 <-> 203
c alp_H1_0_1 <-> 203
c alp_H1_0_2 <-> 203
c alp_H1_0_3 <-> 203
c alp_H1_0_4 <-> 203
c alp_H1_0_5 <-> 203
c alp_H1_1_6 <-> 203
c alp_H1_0_7 <-> 203
c alp_H1_0_8 <-> 203
c alp_H1_0_9 <-> 203
c alp_H1_0_6 <-> 204
c H1_P0 <-> 204
c alp_H1_1_0 <-> 205
c alp_H1_1_1 <-> 205
c alp_H1_1_2 <-> 205
c alp_H1_1_3 <-> 205
c alp_H1_1_4 <-> 205
c alp_H1_1_5 <-> 205
c alp_H1_1_7 <-> 205
c alp_H1_1_8 <-> 205
c alp_H1_1_9 <-> 205
c H1_P100 <-> 205
c tau_2_3_H1_1 <-> 232
c tau_2_3_H1_0 <-> 233
c tau_2_2_H1_1 <-> 234
c tau_2_2_H1_0 <-> 235
c tau_2_1_H1_1 <-> 236
c tau_2_1_H1_0 <-> 237
c tau_2_0_H1_1 <-> 238
c tau_2_0_H1_0 <-> 239
c tau_1_3_H1_1 <-> 276
c tau_1_3_H1_0 <-> 277
c tau_1_3_2 <-> 278
c tau_1_2_H1_1 <-> 279
c tau_1_2_H1_0 <-> 280
c tau_1_2_2 <-> 281
c tau_1_1_H1_1 <-> 282
c tau_1_1_H1_0 <-> 283
c tau_1_1_2 <-> 284
c tau_1_0_H1_1 <-> 285
c tau_1_0_H1_0 <-> 286
c tau_1_0_2 <-> 287
c tau_0_3_H1_1 <-> 348
c tau_0_3_H1_0 <-> 350
c tau_0_3_2 <-> 351
c tau_0_3_1 <-> 352
c tau_0_2_H1_1 <-> 353
c tau_0_2_H1_0 <-> 354
c tau_0_2_2 <-> 355
c tau_0_2_1 <-> 356
c tau_0_1_H1_1 <-> 357
c tau_0_1_H1_0 <-> 358
c tau_0_1_2 <-> 359
c tau_0_1_1 <-> 360
c tau_0_0_H1_1 <-> 361
c tau_0_0_H1_0 <-> 362
c tau_0_0_2 <-> 363
c tau_0_0_1 <-> 364
c lam_2_F10 <-> 368
c lam_2_F1 <-> 369
c lam_1_F10 <-> 373
c lam_1_F1 <-> 374
c lam_0_F10 <-> 378
c lam_0_F1 <-> 379
p wcnf 379 1031 11  
11 1 0
11 2 -3 0
11 2 -6 0
11 -2 6 3 0
11 -3 4 0
11 -3 368 0
11 3 -368 -4 0
11 -4 5 0
11 -4 -239 0
11 4 239 -5 0
11 5 238 0
11 5 -205 0
11 -5 205 -238 0
11 -6 7 0
11 -6 369 0
11 6 -369 -7 0
11 -7 8 0
11 -7 -235 0
11 7 235 -8 0
11 8 234 0
11 8 -205 0
11 -8 205 -234 0
11 9 -10 0
11 9 -15 0
11 -9 15 10 0
11 -10 11 0
11 -10 373 0
11 10 -373 -11 0
11 -11 12 0
11 -11 13 0
11 11 -13 -12 0
11 12 285 0
11 12 -205 0
11 -12 205 -285 0
11 -13 -286 0
11 -13 14 0
11 13 -14 286 0
11 14 -2 0
11 14 287 0
11 -14 -287 2 0
11 -15 16 0
11 -15 374 0
11 15 -374 -16 0
11 -16 17 0
11 -16 18 0
11 16 -18 -17 0
11 17 279 0
11 17 -205 0
11 -17 205 -279 0
11 -18 -280 0
11 -18 19 0
11 18 -19 280 0
11 19 -2 0
11 19 281 0
11 -19 -281 2 0
11 20 -21 0
11 20 -28 0
11 -20 28 21 0
1 20 0
11 -21 22 0
11 -21 378 0
11 21 -378 -22 0
11 -22 23 0
11 -22 24 0
11 22 -24 -23 0
11 23 361 0
11 23 -205 0
11 -23 205 -361 0
11 -24 -362 0
11 -24 25 0
11 24 -25 362 0
11 -25 26 0
11 -25 27 0
11 25 -27 -26 0
11 26 -2 0
11 26 363 0
11 -26 -363 2 0
11 27 -9 0
11 27 364 0
11 -27 -364 9 0
11 -28 29 0
11 -28 379 0
11 28 -379 -29 0
11 -29 30 0
11 -29 31 0
11 29 -31 -30 0
11 30 353 0
11 30 -205 0
11 -30 205 -353 0
11 -31 -354 0
11 -31 32 0
11 31 -32 354 0
11 -32 33 0
11 -32 34 0
11 32 -34 -33 0
11 33 -2 0
11 33 355 0
11 -33 -355 2 0
11 34 -9 0
11 34 356 0
11 -34 -356 9 0
11 35 -36 0
11 35 -37 0
11 -35 37 36 0
11 -36 7 0
11 -36 368 0
11 36 -368 -7 0
11 -37 4 0
11 -37 369 0
11 37 -369 -4 0
11 38 -39 0
11 38 -43 0
11 -38 43 39 0
11 -39 40 0
11 -39 373 0
11 39 -373 -40 0
11 -40 17 0
11 -40 41 0
11 40 -41 -17 0
11 -41 -280 0
11 -41 42 0
11 41 -42 280 0
11 42 281 0
11 42 -35 0
11 -42 35 -281 0
11 -43 44 0
11 -43 374 0
11 43 -374 -44 0
11 -44 12 0
11 -44 45 0
11 44 -45 -12 0
11 -45 -286 0
11 -45 46 0
11 45 -46 286 0
11 46 287 0
11 46 -35 0
11 -46 35 -287 0
11 47 -48 0
11 47 -54 0
11 -47 54 48 0
1 47 0
11 -48 49 0
11 -48 378 0
11 48 -378 -49 0
11 -49 30 0
11 -49 50 0
11 49 -50 -30 0
11 -50 -354 0
11 -50 51 0
11 50 -51 354 0
11 -51 52 0
11 -51 53 0
11 51 -53 -52 0
11 52 355 0
11 52 -35 0
11 -52 35 -355 0
11 53 356 0
11 53 -38 0
11 -53 38 -356 0
11 -54 55 0
11 -54 379 0
11 54 -379 -55 0
11 -55 23 0
11 -55 56 0
11 55 -56 -23 0
11 -56 -362 0
11 -56 57 0
11 56 -57 362 0
11 -57 58 0
11 -57 59 0
11 57 -59 -58 0
11 58 363 0
11 58 -35 0
11 -58 35 -363 0
11 59 364 0
11 59 -38 0
11 -59 38 -364 0
11 60 -6 0
11 60 -61 0
11 -60 61 6 0
11 -61 62 0
11 -61 368 0
11 61 -368 -62 0
11 -62 63 0
11 -62 -237 0
11 62 237 -63 0
11 63 236 0
11 63 -205 0
11 -63 205 -236 0
11 64 -65 0
11 64 -70 0
11 -64 70 65 0
11 -65 66 0
11 -65 373 0
11 65 -373 -66 0
11 -66 67 0
11 -66 68 0
11 66 -68 -67 0
11 67 282 0
11 67 -205 0
11 -67 205 -282 0
11 -68 -283 0
11 -68 69 0
11 68 -69 283 0
11 69 -60 0
11 69 284 0
11 -69 -284 60 0
11 -70 71 0
11 -70 374 0
11 70 -374 -71 0
11 -71 17 0
11 -71 72 0
11 71 -72 -17 0
11 -72 -280 0
11 -72 73 0
11 72 -73 280 0
11 73 281 0
11 73 -60 0
11 -73 60 -281 0
11 74 -75 0
11 74 -82 0
11 -74 82 75 0
1 74 0
11 -75 76 0
11 -75 378 0
11 75 -378 -76 0
11 -76 77 0
11 -76 78 0
11 76 -78 -77 0
11 77 357 0
11 77 -205 0
11 -77 205 -357 0
11 -78 -358 0
11 -78 79 0
11 78 -79 358 0
11 -79 80 0
11 -79 81 0
11 79 -81 -80 0
11 80 -60 0
11 80 359 0
11 -80 -359 60 0
11 81 -64 0
11 81 360 0
11 -81 -360 64 0
11 -82 83 0
11 -82 379 0
11 82 -379 -83 0
11 -83 30 0
11 -83 84 0
11 83 -84 -30 0
11 -84 -354 0
11 -84 85 0
11 84 -85 354 0
11 -85 86 0
11 -85 87 0
11 85 -87 -86 0
11 86 355 0
11 86 -60 0
11 -86 60 -355 0
11 87 356 0
11 87 -64 0
11 -87 64 -356 0
11 88 -89 0
11 88 -92 0
11 -88 92 89 0
11 -89 90 0
11 -89 368 0
11 89 -368 -90 0
11 -90 -236 0
11 -90 91 0
11 90 -91 236 0
11 91 237 0
11 91 -204 0
11 -91 204 -237 0
11 -92 93 0
11 -92 369 0
11 92 -369 -93 0
11 -93 -238 0
11 -93 94 0
11 93 -94 238 0
11 94 239 0
11 94 -204 0
11 -94 204 -239 0
11 95 -96 0
11 95 -101 0
11 -95 101 96 0
11 -96 97 0
11 -96 373 0
11 96 -373 -97 0
11 -97 -282 0
11 -97 98 0
11 97 -98 282 0
11 -98 99 0
11 -98 100 0
11 98 -100 -99 0
11 99 283 0
11 99 -204 0
11 -99 204 -283 0
11 100 284 0
11 100 -88 0
11 -100 88 -284 0
11 -101 102 0
11 -101 374 0
11 101 -374 -102 0
11 -102 -285 0
11 -102 103 0
11 102 -103 285 0
11 -103 104 0
11 -103 105 0
11 103 -105 -104 0
11 104 286 0
11 104 -204 0
11 -104 204 -286 0
11 105 287 0
11 105 -88 0
11 -105 88 -287 0
11 106 -107 0
11 106 -114 0
11 -106 114 107 0
1 106 0
11 -107 108 0
11 -107 378 0
11 107 -378 -108 0
11 -108 -357 0
11 -108 109 0
11 108 -109 357 0
11 -109 110 0
11 -109 111 0
11 109 -111 -110 0
11 110 358 0
11 110 -204 0
11 -110 204 -358 0
11 -111 112 0
11 -111 113 0
11 111 -113 -112 0
11 112 359 0
11 112 -88 0
11 -112 88 -359 0
11 113 360 0
11 113 -95 0
11 -113 95 -360 0
11 -114 115 0
11 -114 379 0
11 114 -379 -115 0
11 -115 -361 0
11 -115 116 0
11 115 -116 361 0
11 -116 117 0
11 -116 118 0
11 116 -118 -117 0
11 117 362 0
11 117 -204 0
11 -117 204 -362 0
11 -118 119 0
11 -118 120 0
11 118 -120 -119 0
11 119 363 0
11 119 -88 0
11 -119 88 -363 0
11 120 364 0
11 120 -95 0
11 -120 95 -364 0
11 121 -6 0
11 121 -36 0
11 -121 36 6 0
11 122 -123 0
11 122 -124 0
11 -122 124 123 0
11 -123 125 0
11 -123 373 0
11 123 -373 -125 0
11 -124 125 0
11 -124 374 0
11 124 -374 -125 0
11 -125 17 0
11 -125 126 0
11 125 -126 -17 0
11 -126 -280 0
11 -126 127 0
11 126 -127 280 0
11 127 281 0
11 127 -121 0
11 -127 121 -281 0
11 128 -129 0
11 128 -130 0
11 -128 130 129 0
1 128 0
11 -129 131 0
11 -129 378 0
11 129 -378 -131 0
11 -130 131 0
11 -130 379 0
11 130 -379 -131 0
11 -131 30 0
11 -131 132 0
11 131 -132 -30 0
11 -132 -354 0
11 -132 133 0
11 132 -133 354 0
11 -133 134 0
11 -133 135 0
11 133 -135 -134 0
11 134 355 0
11 134 -121 0
11 -134 121 -355 0
11 135 356 0
11 135 -122 0
11 -135 122 -356 0
11 136 -61 0
11 136 -137 0
11 -136 137 61 0
11 -137 62 0
11 -137 369 0
11 137 -369 -62 0
11 138 -139 0
11 138 -140 0
11 -138 140 139 0
11 -139 141 0
11 -139 373 0
11 139 -373 -141 0
11 -140 141 0
11 -140 374 0
11 140 -374 -141 0
11 -141 67 0
11 -141 142 0
11 141 -142 -67 0
11 -142 -283 0
11 -142 143 0
11 142 -143 283 0
11 143 284 0
11 143 -136 0
11 -143 136 -284 0
11 144 -145 0
11 144 -146 0
11 -144 146 145 0
1 144 0
11 -145 147 0
11 -145 378 0
11 145 -378 -147 0
11 -146 147 0
11 -146 379 0
11 146 -379 -147 0
11 -147 77 0
11 -147 148 0
11 147 -148 -77 0
11 -148 -358 0
11 -148 149 0
11 148 -149 358 0
11 -149 150 0
11 -149 151 0
11 149 -151 -150 0
11 150 359 0
11 150 -136 0
11 -150 136 -359 0
11 151 360 0
11 151 -138 0
11 -151 138 -360 0
11 152 -36 0
11 152 -153 0
11 -152 153 36 0
11 -153 154 0
11 -153 369 0
11 153 -369 -154 0
11 -154 155 0
11 -154 -233 0
11 154 233 -155 0
11 155 232 0
11 155 -205 0
11 -155 205 -232 0
11 156 -157 0
11 156 -161 0
11 -156 161 157 0
11 -157 158 0
11 -157 373 0
11 157 -373 -158 0
11 -158 17 0
11 -158 159 0
11 158 -159 -17 0
11 -159 -280 0
11 -159 160 0
11 159 -160 280 0
11 160 281 0
11 160 -152 0
11 -160 152 -281 0
11 -161 162 0
11 -161 374 0
11 161 -374 -162 0
11 -162 163 0
11 -162 164 0
11 162 -164 -163 0
11 163 276 0
11 163 -205 0
11 -163 205 -276 0
11 -164 -277 0
11 -164 165 0
11 164 -165 277 0
11 165 -152 0
11 165 278 0
11 -165 -278 152 0
11 166 -167 0
11 166 -173 0
11 -166 173 167 0
1 166 0
11 -167 168 0
11 -167 378 0
11 167 -378 -168 0
11 -168 30 0
11 -168 169 0
11 168 -169 -30 0
11 -169 -354 0
11 -169 170 0
11 169 -170 354 0
11 -170 171 0
11 -170 172 0
11 170 -172 -171 0
11 171 355 0
11 171 -152 0
11 -171 152 -355 0
11 172 356 0
11 172 -156 0
11 -172 156 -356 0
11 -173 174 0
11 -173 379 0
11 173 -379 -174 0
11 -174 175 0
11 -174 176 0
11 174 -176 -175 0
11 175 348 0
11 175 -205 0
11 -175 205 -348 0
11 -176 -350 0
11 -176 177 0
11 176 -177 350 0
11 -177 178 0
11 -177 179 0
11 177 -179 -178 0
11 178 -152 0
11 178 351 0
11 -178 -351 152 0
11 179 -156 0
11 179 352 0
11 -179 -352 156 0
11 180 -36 0
11 180 -137 0
11 -180 137 36 0
11 181 -182 0
11 181 -186 0
11 -181 186 182 0
11 -182 183 0
11 -182 373 0
11 182 -373 -183 0
11 -183 17 0
11 -183 184 0
11 183 -184 -17 0
11 -184 -280 0
11 -184 185 0
11 184 -185 280 0
11 185 281 0
11 185 -180 0
11 -185 180 -281 0
11 -186 187 0
11 -186 374 0
11 186 -374 -187 0
11 -187 67 0
11 -187 188 0
11 187 -188 -67 0
11 -188 -283 0
11 -188 189 0
11 188 -189 283 0
11 189 284 0
11 189 -180 0
11 -189 180 -284 0
11 190 -191 0
11 190 -197 0
11 -190 197 191 0
1 190 0
11 -191 192 0
11 -191 378 0
11 191 -378 -192 0
11 -192 30 0
11 -192 193 0
11 192 -193 -30 0
11 -193 -354 0
11 -193 194 0
11 193 -194 354 0
11 -194 195 0
11 -194 196 0
11 194 -196 -195 0
11 195 355 0
11 195 -180 0
11 -195 180 -355 0
11 196 356 0
11 196 -181 0
11 -196 181 -356 0
11 -197 198 0
11 -197 379 0
11 197 -379 -198 0
11 -198 77 0
11 -198 199 0
11 198 -199 -77 0
11 -199 -358 0
11 -199 200 0
11 199 -200 358 0
11 -200 201 0
11 -200 202 0
11 200 -202 -201 0
11 201 359 0
11 201 -180 0
11 -201 180 -359 0
11 202 360 0
11 202 -181 0
11 -202 181 -360 0
11 -203 0
11 206 368 0
11 206 -207 0
11 -206 207 -368 0
11 206 0
11 -207 -232 0
11 -207 -233 0
11 207 233 232 0
11 208 373 0
11 208 -209 0
11 -208 209 -373 0
11 208 0
11 -209 -276 0
11 -209 210 0
11 209 -210 276 0
11 -210 -277 0
11 -210 -278 0
11 210 278 277 0
11 211 378 0
11 211 -212 0
11 -211 212 -378 0
11 211 0
11 -212 -348 0
11 -212 213 0
11 212 -213 348 0
11 -213 -350 0
11 -213 214 0
11 213 -214 350 0
11 -214 -351 0
11 -214 -352 0
11 214 352 351 0
11 215 368 0
11 215 -216 0
11 -215 216 -368 0
11 215 0
11 -216 217 0
11 -216 220 0
11 216 -220 -217 0
11 217 -218 0
11 217 -219 0
11 -217 219 218 0
11 -218 -235 0
11 -218 234 0
11 218 -234 235 0
11 -219 -234 0
11 -219 235 0
11 219 -235 234 0
11 -220 221 0
11 -220 224 0
11 220 -224 -221 0
11 221 -222 0
11 221 -223 0
11 -221 223 222 0
11 -222 -237 0
11 -222 236 0
11 222 -236 237 0
11 -223 -236 0
11 -223 237 0
11 223 -237 236 0
11 224 -225 0
11 224 -226 0
11 -224 226 225 0
11 -225 -239 0
11 -225 238 0
11 225 -238 239 0
11 -226 -238 0
11 -226 239 0
11 226 -239 238 0
11 227 369 0
11 227 -228 0
11 -227 228 -369 0
11 227 0
11 -228 216 0
11 -228 229 0
11 228 -229 -216 0
11 229 -230 0
11 229 -231 0
11 -229 231 230 0
11 -230 -233 0
11 -230 232 0
11 230 -232 233 0
11 -231 -232 0
11 -231 233 0
11 231 -233 232 0
11 240 373 0
11 240 -241 0
11 -240 241 -373 0
11 240 0
11 -241 242 0
11 -241 250 0
11 241 -250 -242 0
11 242 -243 0
11 242 -248 0
11 -242 248 243 0
11 243 -244 0
11 243 -246 0
11 -243 246 244 0
11 -244 245 0
11 -244 279 0
11 244 -279 -245 0
11 -245 -280 0
11 -245 -281 0
11 245 281 280 0
11 -246 247 0
11 -246 280 0
11 246 -280 -247 0
11 -247 -279 0
11 -247 -281 0
11 247 281 279 0
11 -248 249 0
11 -248 281 0
11 248 -281 -249 0
11 -249 -279 0
11 -249 -280 0
11 249 280 279 0
11 -250 251 0
11 -250 259 0
11 250 -259 -251 0
11 251 -252 0
11 251 -257 0
11 -251 257 252 0
11 252 -253 0
11 252 -255 0
11 -252 255 253 0
11 -253 254 0
11 -253 282 0
11 253 -282 -254 0
11 -254 -283 0
11 -254 -284 0
11 254 284 283 0
11 -255 256 0
11 -255 283 0
11 255 -283 -256 0
11 -256 -282 0
11 -256 -284 0
11 256 284 282 0
11 -257 258 0
11 -257 284 0
11 257 -284 -258 0
11 -258 -282 0
11 -258 -283 0
11 258 283 282 0
11 259 -260 0
11 259 -265 0
11 -259 265 260 0
11 260 -261 0
11 260 -263 0
11 -260 263 261 0
11 -261 262 0
11 -261 285 0
11 261 -285 -262 0
11 -262 -286 0
11 -262 -287 0
11 262 287 286 0
11 -263 264 0
11 -263 286 0
11 263 -286 -264 0
11 -264 -285 0
11 -264 -287 0
11 264 287 285 0
11 -265 266 0
11 -265 287 0
11 265 -287 -266 0
11 -266 -285 0
11 -266 -286 0
11 266 286 285 0
11 267 374 0
11 267 -268 0
11 -267 268 -374 0
11 267 0
11 -268 241 0
11 -268 269 0
11 268 -269 -241 0
11 269 -270 0
11 269 -274 0
11 -269 274 270 0
11 270 -271 0
11 270 -272 0
11 -270 272 271 0
11 -271 210 0
11 -271 276 0
11 271 -276 -210 0
11 -272 273 0
11 -272 277 0
11 272 -277 -273 0
11 -273 -276 0
11 -273 -278 0
11 273 278 276 0
11 -274 275 0
11 -274 278 0
11 274 -278 -275 0
11 -275 -276 0
11 -275 -277 0
11 275 277 276 0
11 288 378 0
11 288 -289 0
11 -288 289 -378 0
11 288 0
11 -289 290 0
11 -289 304 0
11 289 -304 -290 0
11 290 -291 0
11 290 -297 0
11 -290 297 291 0
11 291 -292 0
11 291 -294 0
11 -291 294 292 0
11 -292 293 0
11 -292 353 0
11 292 -353 -293 0
11 -293 -355 0
11 -293 300 0
11 293 -300 355 0
11 -294 295 0
11 -294 354 0
11 294 -354 -295 0
11 -295 -355 0
11 -295 296 0
11 295 -296 355 0
11 -296 -353 0
11 -296 -356 0
11 296 356 353 0
11 297 -298 0
11 297 -301 0
11 -297 301 298 0
11 -298 299 0
11 -298 355 0
11 298 -355 -299 0
11 -299 -353 0
11 -299 300 0
11 299 -300 353 0
11 -300 -354 0
11 -300 -356 0
11 300 356 354 0
11 -301 302 0
11 -301 356 0
11 301 -356 -302 0
11 -302 -353 0
11 -302 303 0
11 302 -303 353 0
11 -303 -354 0
11 -303 -355 0
11 303 355 354 0
11 -304 305 0
11 -304 319 0
11 304 -319 -305 0
11 305 -306 0
11 305 -312 0
11 -305 312 306 0
11 306 -307 0
11 306 -309 0
11 -306 309 307 0
11 -307 308 0
11 -307 357 0
11 307 -357 -308 0
11 -308 -359 0
11 -308 315 0
11 308 -315 359 0
11 -309 310 0
11 -309 358 0
11 309 -358 -310 0
11 -310 -359 0
11 -310 311 0
11 310 -311 359 0
11 -311 -357 0
11 -311 -360 0
11 311 360 357 0
11 312 -313 0
11 312 -316 0
11 -312 316 313 0
11 -313 314 0
11 -313 359 0
11 313 -359 -314 0
11 -314 -357 0
11 -314 315 0
11 314 -315 357 0
11 -315 -358 0
11 -315 -360 0
11 315 360 358 0
11 -316 317 0
11 -316 360 0
11 316 -360 -317 0
11 -317 -357 0
11 -317 318 0
11 317 -318 357 0
11 -318 -358 0
11 -318 -359 0
11 318 359 358 0
11 319 -320 0
11 319 -326 0
11 -319 326 320 0
11 320 -321 0
11 320 -323 0
11 -320 323 321 0
11 -321 322 0
11 -321 361 0
11 321 -361 -322 0
11 -322 -363 0
11 -322 329 0
11 322 -329 363 0
11 -323 324 0
11 -323 362 0
11 323 -362 -324 0
11 -324 -363 0
11 -324 325 0
11 324 -325 363 0
11 -325 -361 0
11 -325 -364 0
11 325 364 361 0
11 326 -327 0
11 326 -330 0
11 -326 330 327 0
11 -327 328 0
11 -327 363 0
11 327 -363 -328 0
11 -328 -361 0
11 -328 329 0
11 328 -329 361 0
11 -329 -362 0
11 -329 -364 0
11 329 364 362 0
11 -330 331 0
11 -330 364 0
11 330 -364 -331 0
11 -331 -361 0
11 -331 332 0
11 331 -332 361 0
11 -332 -362 0
11 -332 -363 0
11 332 363 362 0
11 333 379 0
11 333 -334 0
11 -333 334 -379 0
11 333 0
11 -334 289 0
11 -334 335 0
11 334 -335 -289 0
11 335 -336 0
11 335 -342 0
11 -335 342 336 0
11 336 -337 0
11 336 -339 0
11 -336 339 337 0
11 -337 338 0
11 -337 348 0
11 337 -348 -338 0
11 -338 -351 0
11 -338 345 0
11 338 -345 351 0
11 -339 340 0
11 -339 350 0
11 339 -350 -340 0
11 -340 -351 0
11 -340 341 0
11 340 -341 351 0
11 -341 -348 0
11 -341 -352 0
11 341 352 348 0
11 342 -343 0
11 342 -346 0
11 -342 346 343 0
11 -343 344 0
11 -343 351 0
11 343 -351 -344 0
11 -344 -348 0
11 -344 345 0
11 344 -345 348 0
11 -345 -350 0
11 -345 -352 0
11 345 352 350 0
11 -346 347 0
11 -346 352 0
11 346 -352 -347 0
11 -347 -348 0
11 -347 349 0
11 347 -349 348 0
11 -349 -350 0
11 -349 -351 0
11 349 351 350 0
11 365 -366 0
11 365 -367 0
11 -365 367 366 0
11 365 0
11 -366 -369 0
11 -366 368 0
11 366 -368 369 0
11 -367 -368 0
11 -367 369 0
11 367 -369 368 0
11 370 -371 0
11 370 -372 0
11 -370 372 371 0
11 370 0
11 -371 -374 0
11 -371 373 0
11 371 -373 374 0
11 -372 -373 0
11 -372 374 0
11 372 -374 373 0
11 375 -376 0
11 375 -377 0
11 -375 377 376 0
11 375 0
11 -376 -379 0
11 -376 378 0
11 376 -378 379 0
11 -377 -378 0
11 -377 379 0
11 377 -379 378 0
